objective value:                                  -78
t_x16                                               1 	(obj:-100)
t_y16_419                                           1 	(obj:1)
t_y16_277                                           1 	(obj:1)
t_y16_103                                           1 	(obj:1)
t_y16_386                                           1 	(obj:1)
t_y16_18                                            1 	(obj:1)
t_y16_55                                            1 	(obj:1)
t_y16_303                                           1 	(obj:1)
t_y16_412                                           1 	(obj:1)
t_y16_448                                           1 	(obj:1)
t_y16_205                                           1 	(obj:1)
t_y16_154                                           1 	(obj:1)
t_y16_119                                           1 	(obj:1)
t_y16_258                                           1 	(obj:1)
t_y16_158                                           1 	(obj:1)
t_y16_87                                            1 	(obj:1)
t_y16_406                                           1 	(obj:1)
t_y16_254                                           1 	(obj:1)
t_y16_429                                           1 	(obj:1)
t_y16_380                                           1 	(obj:1)
t_y16_310                                           1 	(obj:1)
t_y16_397                                           1 	(obj:1)
t_y16_326                                           1 	(obj:1)
